c Output_time 26.03.2020 18:13:11_+0100 1585242791673434505
c ** Program information **
c program_name                          "QBRG_debug"
c version                               "0.3.20"
c date                                  "25.3.2020"
c gid_id                                "673970833836058123f633335630c185360d632e"
c author                                "Oliver Kullmann"
c url                                   "https://github.com/OKullmann/oklibrary/blob/master/Satisfiability/Transformers/Generators/Random/QBRG.cpp"
c ** Machine information **
c machine_name                          "chyna-Lenovo-G50-70"
c bogomips                              3791.08
c ** Compilation information **
c compiler_version                      "g++ 7.5.0"
c compilation_date                      "Mar_26_2020 11:16:30"
c compilation_options                   "--std=c++17 -pedantic -fmax-errors=5 -Wall -Wextra -g -D_GLIBCXX_DEBUG"
c NDEBUG                                0
c OPTIMIZE                              0
c ** Parameters **
c command-line                          "./QBRG_debug" "e40 a40 40" "225*1,1|2-2,1|3-3,1" "" "1,t" ""
c output                                "QuBlRaGe_120_225_1585242791673279149.qdimacs"
c options                               "filtered,renamed"
c num_quantifier_blocks                 3
c  quantifier_blocks                    1:e1-40 2:a41-80 3:e81-120
c num_clause-blocks                     1
c  clause-blocks                        225 * {1-40,1,1/2} | {41-80,1,1/2} | {81-120,1,1/2}
c num_e-seeds                           30+2=32
c  e-seeds                              1 0 1 0 4 120 2 40 1 40 0 40 1 225 3 1 1 1 1 2 2 2 1 1 2 3 3 1 1 2 1 1585242791673278646
p cnf 120 225
e 1 2 3 4 5 6 7 8 9 10 11 12 13 14 15 16 17 18 19 20 21 22 23 24 25 26 27 28 29 30 31 32 33 34 35 36 37 38 39 40 0
a 41 42 43 44 45 46 47 48 49 50 51 52 53 54 55 56 57 58 59 60 61 62 63 64 65 66 67 68 69 70 71 72 73 74 75 76 77 78 79 80 0
e 81 82 83 84 85 86 87 88 89 90 91 92 93 94 95 96 97 98 99 100 101 102 103 104 105 106 107 108 109 110 111 112 113 114 115 116 117 118 119 120 0
7 41 -81 0
-8 54 -81 0
-6 -71 -81 0
-38 75 -81 0
-33 49 81 0
20 -72 81 0
-32 47 -82 0
-33 56 -82 0
17 -65 -82 0
-7 44 82 0
-9 -59 -83 0
-23 62 -83 0
-37 -74 -83 0
27 79 -83 0
-5 -41 83 0
-22 -54 83 0
-27 72 83 0
-33 -79 83 0
-29 79 83 0
-39 -49 -84 0
-31 50 -84 0
29 67 -84 0
-7 -79 -84 0
18 -56 84 0
21 -69 84 0
-31 74 84 0
20 78 84 0
-28 43 -85 0
-24 -47 -85 0
26 -51 -85 0
-28 57 -85 0
20 -66 -85 0
15 -69 -85 0
11 65 85 0
-9 -66 85 0
-28 74 85 0
7 45 -86 0
-2 -55 -86 0
-10 58 -86 0
-18 47 86 0
21 -72 86 0
21 47 -87 0
33 51 -87 0
7 53 -87 0
20 68 -87 0
-6 77 -87 0
36 43 87 0
28 -50 87 0
-34 52 87 0
15 58 87 0
-2 -64 87 0
-6 72 87 0
39 -79 87 0
-17 79 87 0
7 -46 -88 0
-24 -50 -88 0
-11 -54 -88 0
-6 -67 -88 0
-30 78 -88 0
26 43 88 0
-1 -49 -89 0
-35 53 -89 0
31 -64 -89 0
31 58 89 0
-38 50 -90 0
39 -52 -90 0
28 57 90 0
-5 68 90 0
23 68 -91 0
25 -74 -91 0
-27 -42 91 0
11 -77 91 0
35 -69 -92 0
-4 -76 -92 0
10 56 92 0
14 56 92 0
-15 -57 92 0
-14 -62 92 0
-14 66 92 0
12 58 -93 0
-13 -43 93 0
32 -56 93 0
-12 -68 93 0
-3 -48 -94 0
-22 -67 -94 0
5 70 -94 0
28 -54 -95 0
-35 -76 -95 0
12 -44 -96 0
-27 -56 -96 0
14 -69 -96 0
-25 49 96 0
24 72 96 0
-38 73 96 0
26 -54 -97 0
-3 -52 97 0
27 -59 97 0
26 74 -98 0
-15 -54 98 0
-25 75 98 0
26 -43 -99 0
22 48 -99 0
-38 67 -99 0
31 41 99 0
-28 -50 99 0
-24 55 99 0
40 -58 99 0
27 64 99 0
-9 -71 99 0
-34 -57 -100 0
4 80 -100 0
-4 52 -101 0
25 71 -101 0
28 73 101 0
-6 -52 -102 0
-39 55 -102 0
11 73 -102 0
-14 -54 102 0
-25 -57 102 0
-16 -71 102 0
4 -73 102 0
-39 -41 -103 0
-29 49 -103 0
-31 -69 -103 0
20 78 -103 0
-5 -47 -104 0
33 -55 -104 0
-16 45 104 0
35 60 104 0
-13 -45 -105 0
19 -56 -105 0
29 -53 105 0
32 -68 105 0
38 -80 105 0
-31 -47 -106 0
32 -53 -106 0
-13 -66 -106 0
14 -42 106 0
-3 50 106 0
-10 55 106 0
-22 57 106 0
31 -72 106 0
29 -73 106 0
-30 -71 -107 0
18 -75 -107 0
-34 -44 107 0
-17 -45 107 0
24 51 107 0
3 -57 107 0
27 70 107 0
-6 43 -108 0
-24 -74 108 0
-19 61 -109 0
-5 50 109 0
36 47 -110 0
-5 77 -110 0
19 -78 -110 0
-29 41 110 0
-7 -44 110 0
39 -68 110 0
-28 -71 110 0
-21 -79 110 0
14 -46 -111 0
-7 -58 -111 0
-13 74 -111 0
30 -80 -111 0
28 -51 111 0
-13 74 111 0
-14 -55 -112 0
34 61 -112 0
-7 -60 112 0
34 60 112 0
-5 -62 112 0
35 68 112 0
5 -71 112 0
-8 45 -113 0
30 52 -113 0
-30 -53 -113 0
9 -65 -113 0
22 66 -113 0
-20 77 -113 0
4 41 113 0
-20 80 113 0
29 52 -114 0
4 54 -114 0
34 -63 -114 0
-19 -64 -114 0
10 -72 -114 0
-17 -80 -114 0
-21 -47 114 0
18 55 114 0
-29 71 114 0
8 -43 -115 0
-7 -64 -115 0
39 68 -115 0
-13 77 -115 0
7 -64 115 0
-22 72 115 0
-15 62 -116 0
16 76 -116 0
-13 45 116 0
-7 49 116 0
-28 -57 116 0
-32 64 116 0
-7 70 116 0
14 -72 116 0
9 72 116 0
-22 44 -117 0
24 44 117 0
15 -53 -118 0
39 -53 -118 0
-21 -58 -118 0
-18 66 -118 0
26 80 -118 0
-38 -46 118 0
29 -41 -119 0
19 45 119 0
-13 -69 119 0
-21 -79 -120 0
20 -41 120 0
-2 53 120 0
-19 66 120 0
-19 67 120 0
33 -71 120 0
-16 72 120 0
